proyfinal/src/viki/013/experimentInOfficeAgust.take6.output/ad39184e-578b-49a1-93ba-138d2551500f.als.out
Reading from standard input... Use '--help' for help.
============================[ Problem Statistics ]=============================
|                                                                             |
|  Number of variables:         87638                                         |
|  Number of clauses:          161767                                         |
|  Parse time:                   0.03 s                                       |
|                                                                             |
============================[ Search Statistics ]==============================
| Conflicts |          ORIGINAL         |          LEARNT          | Progress |
|           |    Vars  Clauses Literals |    Limit  Clauses Lit/Cl |          |
===============================================================================
|       100 |   63222   108157   270490 |    39657       99     47 | 27.860 % |
|       250 |   63204   108043   270231 |    43623      247    120 | 27.881 % |
|       475 |   49604   107925   269957 |    47985      464     78 | 43.399 % |
|       812 |   49576    69407   174936 |    52784      745     78 | 43.431 % |
|      1318 |   49229    68810   173500 |    58062     1240     68 | 43.827 % |
|      2077 |   49193    67825   171167 |    63868     1991     61 | 43.868 % |
|      3216 |   48770    66237   167381 |    70255     3098     60 | 44.351 % |
|      4924 |   48321    64404   162909 |    77281     4571     57 | 44.863 % |
|      7486 |   47856    62743   158754 |    85009     6432     53 | 45.394 % |
===============================================================================
restarts              : 46
conflicts             : 11016          (7924 /sec)
decisions             : 35213          (0.00 % random) (25330 /sec)
propagations          : 15743912       (11324999 /sec)
conflict literals     : 502879         (41.15 % deleted)
Memory used           : 31.15 MB
CPU time              : 1.39019 s

UNSATISFIABLE
